!
!   GAMESS Calculation input file
!   
!
 $CONTRL SCFTYP=RHF MAXIT=200 RUNTYP=OPTIMIZE
         COORD=UNIQUE MULT=1 
         ICHARG=0  
         DFTTYP=B3LYP
         MOLPLT=.FALSE. PLTORB=.FALSE.  $END
 $SYSTEM TIMLIM=2879 MWORDS=250  $END

 $FORCE METHOD=SEMINUM NVIB=2 $END 
 $STATPT OPTTOL=0.0005 NSTEP=999 $END
 $STATPT IHREP=0 HSSEND=.TRUE.  $END

 $DFT    METHOD=GRID  NLEB=590  $END

 $BASIS  GBASIS=N21 NGAUSS=3 $END

 $SCF    DIRSCF=.T. $END
 $GUESS  GUESS=HUCKEL  $END

 $DATA
   
  C1
O     8.0    -1.06657     1.33274     0.16695
C     6.0    -0.02804     0.71979    -0.04815
C     6.0     0.00806    -0.76110    -0.04742
C     6.0     1.16719    -1.44096    -0.08960
H     1.0     0.92589     1.23310    -0.24524
H     1.0    -0.94864    -1.26228     0.00010
H     1.0     2.13123    -0.94891    -0.11755
H     1.0     1.15928    -2.52427    -0.08215
 $END


! Customizations after this line are persisted when using Do More Calculations
